(set-logic HORN)
(declare-fun Start (Int Int Int Int Int ) Bool)
(declare-fun NT1 (Int Int Int Int Int ) Bool)
(declare-fun NT3 (Bool Bool Bool Bool Bool ) Bool)
(declare-fun NT4 (Int Int Int Int Int ) Bool)
(assert (Start -1 -2 0 -1 1))
(assert (Start 1 0 1 0 2))
(assert (Start 0 0 0 0 0))
(assert (Start 1 1 1 1 1))
(assert (Start 0 -1 -1 1 3))
(assert (forall ((x_0_0 Int) (x_0_1 Int) (x_0_2 Int) (x_0_3 Int) (x_0_4 Int) (x_1_0 Int) (x_1_1 Int) (x_1_2 Int) (x_1_3 Int) (x_1_4 Int) )
 (=> (and (NT1 x_0_0 x_0_1 x_0_2 x_0_3 x_0_4) (NT1 x_1_0 x_1_1 x_1_2 x_1_3 x_1_4) ) (Start (+ x_0_0 x_1_0) (+ x_0_1 x_1_1) (+ x_0_2 x_1_2) (+ x_0_3 x_1_3) (+ x_0_4 x_1_4)))))

(assert (forall ((x_0_0 Bool) (x_0_1 Bool) (x_0_2 Bool) (x_0_3 Bool) (x_0_4 Bool) (x_1_0 Int) (x_1_1 Int) (x_1_2 Int) (x_1_3 Int) (x_1_4 Int) (x_2_0 Int) (x_2_1 Int) (x_2_2 Int) (x_2_3 Int) (x_2_4 Int) )
 (=> (and (NT3 x_0_0 x_0_1 x_0_2 x_0_3 x_0_4) (NT1 x_1_0 x_1_1 x_1_2 x_1_3 x_1_4) (NT1 x_2_0 x_2_1 x_2_2 x_2_3 x_2_4) ) (Start (ite x_0_0 x_1_0 x_2_0) (ite x_0_1 x_1_1 x_2_1) (ite x_0_2 x_1_2 x_2_2) (ite x_0_3 x_1_3 x_2_3) (ite x_0_4 x_1_4 x_2_4)))))

(assert (forall ((x_0_0 Int) (x_0_1 Int) (x_0_2 Int) (x_0_3 Int) (x_0_4 Int) (x_1_0 Int) (x_1_1 Int) (x_1_2 Int) (x_1_3 Int) (x_1_4 Int) )
 (=> (and (NT4 x_0_0 x_0_1 x_0_2 x_0_3 x_0_4) (NT1 x_1_0 x_1_1 x_1_2 x_1_3 x_1_4) ) (Start (+ x_0_0 x_1_0) (+ x_0_1 x_1_1) (+ x_0_2 x_1_2) (+ x_0_3 x_1_3) (+ x_0_4 x_1_4)))))

(assert (NT1 0 0 0 0 0))
(assert (NT1 1 1 1 1 1))
(assert (forall ((x_0_0 Int) (x_0_1 Int) (x_0_2 Int) (x_0_3 Int) (x_0_4 Int) (x_1_0 Int) (x_1_1 Int) (x_1_2 Int) (x_1_3 Int) (x_1_4 Int) )
 (=> (and (NT1 x_0_0 x_0_1 x_0_2 x_0_3 x_0_4) (NT1 x_1_0 x_1_1 x_1_2 x_1_3 x_1_4) ) (NT1 (+ x_0_0 x_1_0) (+ x_0_1 x_1_1) (+ x_0_2 x_1_2) (+ x_0_3 x_1_3) (+ x_0_4 x_1_4)))))

(assert (forall ((x_0_0 Int) (x_0_1 Int) (x_0_2 Int) (x_0_3 Int) (x_0_4 Int) (x_1_0 Int) (x_1_1 Int) (x_1_2 Int) (x_1_3 Int) (x_1_4 Int) )
 (=> (and (NT1 x_0_0 x_0_1 x_0_2 x_0_3 x_0_4) (NT1 x_1_0 x_1_1 x_1_2 x_1_3 x_1_4) ) (NT3 (>= x_0_0 x_1_0) (>= x_0_1 x_1_1) (>= x_0_2 x_1_2) (>= x_0_3 x_1_3) (>= x_0_4 x_1_4)))))

(assert (forall ((x_0_0 Bool) (x_0_1 Bool) (x_0_2 Bool) (x_0_3 Bool) (x_0_4 Bool) (x_1_0 Int) (x_1_1 Int) (x_1_2 Int) (x_1_3 Int) (x_1_4 Int) (x_2_0 Int) (x_2_1 Int) (x_2_2 Int) (x_2_3 Int) (x_2_4 Int) )
 (=> (and (NT3 x_0_0 x_0_1 x_0_2 x_0_3 x_0_4) (NT1 x_1_0 x_1_1 x_1_2 x_1_3 x_1_4) (NT1 x_2_0 x_2_1 x_2_2 x_2_3 x_2_4) ) (NT4 (ite x_0_0 x_1_0 x_2_0) (ite x_0_1 x_1_1 x_2_1) (ite x_0_2 x_1_2 x_2_2) (ite x_0_3 x_1_3 x_2_3) (ite x_0_4 x_1_4 x_2_4)))))

(assert (forall ((x_0_0 Int) (x_0_1 Int) (x_0_2 Int) (x_0_3 Int) (x_0_4 Int) (x_1_0 Int) (x_1_1 Int) (x_1_2 Int) (x_1_3 Int) (x_1_4 Int) )
 (=> (and (NT4 x_0_0 x_0_1 x_0_2 x_0_3 x_0_4) (NT1 x_1_0 x_1_1 x_1_2 x_1_3 x_1_4) ) (NT4 (+ x_0_0 x_1_0) (+ x_0_1 x_1_1) (+ x_0_2 x_1_2) (+ x_0_3 x_1_3) (+ x_0_4 x_1_4)))))


(assert (forall ( (x_0 Int)  (x_1 Int)  (x_2 Int)  (x_3 Int)  (x_4 Int) )
	(=> (Start  x_0  x_1  x_2  x_3  x_4 ) (not (and
		(= x_0 1)
		(= x_1 1)
		(= x_2 0)
		(= x_3 2)
		(= x_4 2)
)))))
(check-sat)